NAME 
ROWS
 N  OBJ
 L  R0      
 L  R1      
 E  R2      
 E  R3      
 E  R4      
 E  R5      
 E  R6      
 E  R7      
 E  R8      
 E  R9      
 E  R10     
 E  R11     
 E  R12     
 E  R13     
 E  R14     
 E  R15     
 E  R16     
 E  R17     
 E  R18     
 E  R19     
 E  R20     
 E  R21     
COLUMNS
    MARKER    'MARKER'                 'INTORG'
    I0(7)     OBJ       -121
    I0(7)     R0        1
    I0(7)     R1        33
    I0(7)     R5        8
    I0(7)     R6        1
    I0(7)     R7        12
    I0(7)     R9        12
    I0(7)     R21       1
    I1(11)    OBJ       68
    I1(11)    R0        38
    I1(11)    R1        -170
    I1(11)    R2        9
    I1(11)    R3        13
    I1(11)    R4        10
    I1(11)    R5        12
    I1(11)    R6        6
    I1(11)    R7        9
    I1(11)    R8        6
    I1(11)    R9        11
    I1(11)    R21       1
    I2(9)     OBJ       -191
    I2(9)     R0        21
    I2(9)     R1        131
    I2(9)     R2        7
    I2(9)     R3        8
    I2(9)     R6        13
    I2(9)     R7        9
    I2(9)     R8        13
    I2(9)     R9        10
    I2(9)     R21       1
    I3(6)     OBJ       -122
    I3(6)     R0        88
    I3(6)     R1        156
    I3(6)     R4        18
    I3(6)     R8        3
    I3(6)     R9        7
    I3(6)     R21       1
    I4(8)     OBJ       57
    I4(8)     R0        -170
    I4(8)     R1        51
    I4(8)     R3        17
    I4(8)     R4        19
    I4(8)     R5        1
    I4(8)     R7        8
    I4(8)     R9        14
    I4(8)     R21       1
    I5(10)    OBJ       -104
    I5(10)    R0        -182
    I5(10)    R1        135
    I5(10)    R2        7
    I5(10)    R3        16
    I5(10)    R5        1
    I5(10)    R6        16
    I5(10)    R7        9
    I5(10)    R8        18
    I5(10)    R9        17
    I5(10)    R21       1
    I6(10)    OBJ       113
    I6(10)    R0        -28
    I6(10)    R1        40
    I6(10)    R3        18
    I6(10)    R4        9
    I6(10)    R5        11
    I6(10)    R6        9
    I6(10)    R7        1
    I6(10)    R8        7
    I6(10)    R9        9
    I6(10)    R21       1
    I7(9)     OBJ       -105
    I7(9)     R0        -45
    I7(9)     R1        167
    I7(9)     R3        17
    I7(9)     R4        17
    I7(9)     R5        17
    I7(9)     R6        5
    I7(9)     R7        11
    I7(9)     R8        3
    I7(9)     R21       1
    MARKER    'MARKER'                 'INTEND'
    C8(12)    OBJ       -2
    C8(12)    R0        -9
    C8(12)    R1        -10
    C8(12)    R3        5
    C8(12)    R5        8
    C8(12)    R8        7
    C8(12)    R9        6
    C8(12)    R10       15
    C8(12)    R12       19
    C8(12)    R13       19
    C8(12)    R14       19
    C8(12)    R16       5
    C8(12)    R17       19
    C9(16)    OBJ       -6
    C9(16)    R0        4
    C9(16)    R1        6
    C9(16)    R2        12
    C9(16)    R3        9
    C9(16)    R4        5
    C9(16)    R5        17
    C9(16)    R7        16
    C9(16)    R8        4
    C9(16)    R9        10
    C9(16)    R11       13
    C9(16)    R13       8
    C9(16)    R14       1
    C9(16)    R15       7
    C9(16)    R17       15
    C9(16)    R19       10
    C9(16)    R20       5
    C10(13)   OBJ       8
    C10(13)   R0        -8
    C10(13)   R1        7
    C10(13)   R2        15
    C10(13)   R3        15
    C10(13)   R5        14
    C10(13)   R6        7
    C10(13)   R9        17
    C10(13)   R12       17
    C10(13)   R13       6
    C10(13)   R14       5
    C10(13)   R15       18
    C10(13)   R19       10
    C10(13)   R20       7
    C11(16)   OBJ       -10
    C11(16)   R0        -6
    C11(16)   R1        -6
    C11(16)   R3        15
    C11(16)   R4        3
    C11(16)   R5        1
    C11(16)   R7        12
    C11(16)   R8        5
    C11(16)   R9        4
    C11(16)   R10       -1
    C11(16)   R12       16
    C11(16)   R13       2
    C11(16)   R14       19
    C11(16)   R15       10
    C11(16)   R16       -1
    C11(16)   R17       5
    C11(16)   R19       7
    C12(18)   R0        -5
    C12(18)   R1        -4
    C12(18)   R2        11
    C12(18)   R3        10
    C12(18)   R4        6
    C12(18)   R5        3
    C12(18)   R6        19
    C12(18)   R7        10
    C12(18)   R8        3
    C12(18)   R9        14
    C12(18)   R12       18
    C12(18)   R13       5
    C12(18)   R14       4
    C12(18)   R15       9
    C12(18)   R16       7
    C12(18)   R18       1
    C12(18)   R19       5
    C12(18)   R20       3
    C13(14)   OBJ       -5
    C13(14)   R0        5
    C13(14)   R1        -4
    C13(14)   R3        11
    C13(14)   R4        14
    C13(14)   R7        14
    C13(14)   R8        6
    C13(14)   R9        18
    C13(14)   R10       7
    C13(14)   R12       7
    C13(14)   R13       8
    C13(14)   R16       2
    C13(14)   R18       2
    C13(14)   R19       8
    C13(14)   R20       13
    C14(11)   OBJ       -7
    C14(11)   R0        -5
    C14(11)   R1        4
    C14(11)   R2        16
    C14(11)   R5        19
    C14(11)   R6        2
    C14(11)   R7        6
    C14(11)   R8        15
    C14(11)   R11       10
    C14(11)   R13       12
    C14(11)   R17       7
    C14(11)   R18       7
    C15(14)   OBJ       -7
    C15(14)   R0        9
    C15(14)   R1        1
    C15(14)   R2        2
    C15(14)   R3        3
    C15(14)   R5        15
    C15(14)   R7        10
    C15(14)   R8        16
    C15(14)   R9        5
    C15(14)   R11       12
    C15(14)   R12       10
    C15(14)   R13       17
    C15(14)   R15       19
    C15(14)   R19       11
    C15(14)   R20       9
    C16(14)   OBJ       9
    C16(14)   R0        -8
    C16(14)   R1        9
    C16(14)   R2        19
    C16(14)   R4        6
    C16(14)   R6        17
    C16(14)   R7        7
    C16(14)   R8        18
    C16(14)   R10       9
    C16(14)   R12       3
    C16(14)   R13       6
    C16(14)   R16       1
    C16(14)   R18       16
    C16(14)   R19       12
    C16(14)   R20       15
    C17(13)   OBJ       6
    C17(13)   R0        -8
    C17(13)   R1        6
    C17(13)   R5        8
    C17(13)   R6        19
    C17(13)   R8        18
    C17(13)   R10       2
    C17(13)   R11       5
    C17(13)   R13       18
    C17(13)   R14       8
    C17(13)   R15       4
    C17(13)   R17       7
    C17(13)   R19       4
    C17(13)   R20       14
    C18(15)   OBJ       -10
    C18(15)   R0        2
    C18(15)   R1        -9
    C18(15)   R2        4
    C18(15)   R3        13
    C18(15)   R4        14
    C18(15)   R5        19
    C18(15)   R7        11
    C18(15)   R8        10
    C18(15)   R10       17
    C18(15)   R11       7
    C18(15)   R12       10
    C18(15)   R13       19
    C18(15)   R16       3
    C18(15)   R17       5
    C18(15)   R19       -1
    C19(14)   OBJ       -1
    C19(14)   R0        -3
    C19(14)   R1        5
    C19(14)   R2        -1
    C19(14)   R3        7
    C19(14)   R5        16
    C19(14)   R6        10
    C19(14)   R10       1
    C19(14)   R11       14
    C19(14)   R13       3
    C19(14)   R14       10
    C19(14)   R16       19
    C19(14)   R17       4
    C19(14)   R18       16
    C19(14)   R20       13
    C20(1)    R2        1
    C21(1)    R3        1
    C22(1)    R4        1
    C23(1)    R5        1
    C24(1)    R6        1
    C25(1)    R7        1
    C26(1)    R8        1
    C27(1)    R9        1
    C28(1)    R10       1
    C29(1)    R11       1
    C30(1)    R12       1
    C31(1)    R13       1
    C32(1)    R14       1
    C33(1)    R15       1
    C34(1)    R16       1
    C35(1)    R17       1
    C36(1)    R18       1
    C37(1)    R19       1
    C38(1)    R20       1
    C39(1)    R21       1
RHS
    RHS1      R0        5.5346526590106748e-01
    RHS1      R1        2.5933801612509126e+02
    RHS1      R2        89
    RHS1      R3        70
    RHS1      R4        79
    RHS1      R5        90
    RHS1      R6        58
    RHS1      R7        67
    RHS1      R8        88
    RHS1      R9        84
    RHS1      R10       84
    RHS1      R11       60
    RHS1      R12       95
    RHS1      R13       80
    RHS1      R14       94
    RHS1      R15       62
    RHS1      R16       64
    RHS1      R17       89
    RHS1      R18       53
    RHS1      R19       76
    RHS1      R20       64
    RHS1      R21       2
BOUNDS
 UP BND1      I0(7)     2
 UP BND1      I1(11)    2
 UP BND1      I2(9)     2
 UP BND1      I3(6)     2
 UP BND1      I4(8)     2
 UP BND1      I5(10)    2
 UP BND1      I6(10)    2
 UP BND1      I7(9)     2
ENDATA
